* #variable= 42 #constraint= 3 
+1 x1 -1 x22 +2 x2 -2 x23 +4 x3 -4 x24 +8 x4 -8 x25 +16 x5 -16 x26 +32 x6 -32 x27 +64 x7 -64 x28 +128 x8 -128 x29 +256 x9 -256 x30 +512 x10 -512 x31 +1024 x11 -1024 x32 +2048 x12 -2048 x33 +4096 x13 -4096 x34 +8192 x14 -8192 x35 +16384 x15 -16384 x36 +32768 x16 -32768 x37 +65536 x17 -65536 x38 +131072 x18 -131072 x39 +262144 x19 -262144 x40 +524288 x20 -524288 x41 +1048576 x21 -1048576 x42 = 0 ;
-1 x1 -1 x22 >= -1; 
+1 x1 +1 x22 >= 1; 
